CKP/CKP_n50_Instance_1.lp
\ENCODING=ISO-8859-1
\Problem name: CKP

Maximize
 obj: x1 + x2 + x3 + x4 + x5 + x6 + x7 + x8 + x9 + x10 + x11 + x12 + x13 + x14
      + x15 + x16 + x17 + x18 + x19 + x20 + x21 + x22 + x23 + x24 + x25 + x26
      + x27 + x28 + x29 + x30 + x31 + x32 + x33 + x34 + x35 + x36 + x37 + x38
      + x39 + x40 + x41 + x42 + x43 + x44 + x45 + x46 + x47 + x48 + x49 + x50
Subject To
 c1: 13354 x1 + 13355 x2 + 13356 x3 + 13391 x4 + 13392 x5 + 13393 x6 + 13428 x7
     + 13429 x8 + 13430 x9 + 13945 x10 + 13946 x11 + 13947 x12 + 13982 x13
     + 13983 x14 + 13984 x15 + 14019 x16 + 14020 x17 + 14021 x18 + 14536 x19
     + 14537 x20 + 14538 x21 + 14573 x22 + 14574 x23 + 13354 x24 + 13355 x25
     + 13356 x26 + 13391 x27 + 13392 x28 + 13393 x29 + 13430 x30 + 13982 x31
     + 13983 x32 + 14019 x33 + 14020 x34 + 14536 x35 + 14537 x36 + 14538 x37
     + 14574 x38 + 14575 x39 + 14610 x40 + 14611 x41 + 14612 x42 + 26081 x43
     + 26118 x44 + 26120 x45 + 26155 x46 + 26157 x47 + 26672 x48 + 26673 x49
     + 26674 x50 >= 424920
 c2: 13354 x1 + 13355 x2 + 13356 x3 + 13391 x4 + 13392 x5 + 13393 x6 + 13428 x7
     + 13429 x8 + 13430 x9 + 13945 x10 + 13946 x11 + 13947 x12 + 13982 x13
     + 13983 x14 + 13984 x15 + 14019 x16 + 14020 x17 + 14021 x18 + 14536 x19
     + 14537 x20 + 14538 x21 + 14573 x22 + 14574 x23 + 13354 x24 + 13355 x25
     + 13356 x26 + 13391 x27 + 13392 x28 + 13393 x29 + 13430 x30 + 13982 x31
     + 13983 x32 + 14019 x33 + 14020 x34 + 14536 x35 + 14537 x36 + 14538 x37
     + 14574 x38 + 14575 x39 + 14610 x40 + 14611 x41 + 14612 x42 + 26081 x43
     + 26118 x44 + 26120 x45 + 26155 x46 + 26157 x47 + 26672 x48 + 26673 x49
     + 26674 x50 <= 424921
Bounds
 0 <= x1 <= 1
 0 <= x2 <= 1
 0 <= x3 <= 1
 0 <= x4 <= 1
 0 <= x5 <= 1
 0 <= x6 <= 1
 0 <= x7 <= 1
 0 <= x8 <= 1
 0 <= x9 <= 1
 0 <= x10 <= 1
 0 <= x11 <= 1
 0 <= x12 <= 1
 0 <= x13 <= 1
 0 <= x14 <= 1
 0 <= x15 <= 1
 0 <= x16 <= 1
 0 <= x17 <= 1
 0 <= x18 <= 1
 0 <= x19 <= 1
 0 <= x20 <= 1
 0 <= x21 <= 1
 0 <= x22 <= 1
 0 <= x23 <= 1
 0 <= x24 <= 1
 0 <= x25 <= 1
 0 <= x26 <= 1
 0 <= x27 <= 1
 0 <= x28 <= 1
 0 <= x29 <= 1
 0 <= x30 <= 1
 0 <= x31 <= 1
 0 <= x32 <= 1
 0 <= x33 <= 1
 0 <= x34 <= 1
 0 <= x35 <= 1
 0 <= x36 <= 1
 0 <= x37 <= 1
 0 <= x38 <= 1
 0 <= x39 <= 1
 0 <= x40 <= 1
 0 <= x41 <= 1
 0 <= x42 <= 1
 0 <= x43 <= 1
 0 <= x44 <= 1
 0 <= x45 <= 1
 0 <= x46 <= 1
 0 <= x47 <= 1
 0 <= x48 <= 1
 0 <= x49 <= 1
 0 <= x50 <= 1
Binaries
 x1  x2  x3  x4  x5  x6  x7  x8  x9  x10  x11  x12  x13  x14  x15  x16  x17 
 x18  x19  x20  x21  x22  x23  x24  x25  x26  x27  x28  x29  x30  x31  x32 
 x33  x34  x35  x36  x37  x38  x39  x40  x41  x42  x43  x44  x45  x46  x47 
 x48  x49  x50 
End
