CKP/CKP_n50_Instance_1.lp.txt
\ENCODING=ISO-8859-1
\Problem name: CKP

Maximize
 obj: x1 + x2 + x3 + x4 + x5 + x6 + x7 + x8 + x9 + x10 + x11 + x12 + x13 + x14
      + x15 + x16 + x17 + x18 + x19 + x20 + x21 + x22 + x23 + x24 + x25 + x26
      + x27 + x28 + x29 + x30 + x31 + x32 + x33 + x34 + x35 + x36 + x37 + x38
      + x39 + x40 + x41 + x42 + x43 + x44 + x45 + x46 + x47 + x48 + x49 + x50
Subject To
 c1: 14076 x1 + 14077 x2 + 14078 x3 + 14111 x4 + 14112 x5 + 14113 x6 + 14146 x7
     + 14147 x8 + 14148 x9 + 14737 x10 + 14738 x11 + 14739 x12 + 14772 x13
     + 14773 x14 + 14774 x15 + 14807 x16 + 14808 x17 + 14809 x18 + 15398 x19
     + 15399 x20 + 15400 x21 + 15433 x22 + 15434 x23 + 14077 x24 + 14078 x25
     + 14112 x26 + 14146 x27 + 14147 x28 + 14148 x29 + 14737 x30 + 14738 x31
     + 14772 x32 + 14773 x33 + 14774 x34 + 14808 x35 + 14809 x36 + 15399 x37
     + 15400 x38 + 15433 x39 + 15434 x40 + 15435 x41 + 15468 x42 + 15469 x43
     + 15470 x44 + 27459 x45 + 27492 x46 + 27527 x47 + 27529 x48 + 28118 x49
     + 28120 x50 >= 377992
 c2: 14076 x1 + 14077 x2 + 14078 x3 + 14111 x4 + 14112 x5 + 14113 x6 + 14146 x7
     + 14147 x8 + 14148 x9 + 14737 x10 + 14738 x11 + 14739 x12 + 14772 x13
     + 14773 x14 + 14774 x15 + 14807 x16 + 14808 x17 + 14809 x18 + 15398 x19
     + 15399 x20 + 15400 x21 + 15433 x22 + 15434 x23 + 14077 x24 + 14078 x25
     + 14112 x26 + 14146 x27 + 14147 x28 + 14148 x29 + 14737 x30 + 14738 x31
     + 14772 x32 + 14773 x33 + 14774 x34 + 14808 x35 + 14809 x36 + 15399 x37
     + 15400 x38 + 15433 x39 + 15434 x40 + 15435 x41 + 15468 x42 + 15469 x43
     + 15470 x44 + 27459 x45 + 27492 x46 + 27527 x47 + 27529 x48 + 28118 x49
     + 28120 x50 <= 377992
Bounds
 0 <= x1 <= 1
 0 <= x2 <= 1
 0 <= x3 <= 1
 0 <= x4 <= 1
 0 <= x5 <= 1
 0 <= x6 <= 1
 0 <= x7 <= 1
 0 <= x8 <= 1
 0 <= x9 <= 1
 0 <= x10 <= 1
 0 <= x11 <= 1
 0 <= x12 <= 1
 0 <= x13 <= 1
 0 <= x14 <= 1
 0 <= x15 <= 1
 0 <= x16 <= 1
 0 <= x17 <= 1
 0 <= x18 <= 1
 0 <= x19 <= 1
 0 <= x20 <= 1
 0 <= x21 <= 1
 0 <= x22 <= 1
 0 <= x23 <= 1
 0 <= x24 <= 1
 0 <= x25 <= 1
 0 <= x26 <= 1
 0 <= x27 <= 1
 0 <= x28 <= 1
 0 <= x29 <= 1
 0 <= x30 <= 1
 0 <= x31 <= 1
 0 <= x32 <= 1
 0 <= x33 <= 1
 0 <= x34 <= 1
 0 <= x35 <= 1
 0 <= x36 <= 1
 0 <= x37 <= 1
 0 <= x38 <= 1
 0 <= x39 <= 1
 0 <= x40 <= 1
 0 <= x41 <= 1
 0 <= x42 <= 1
 0 <= x43 <= 1
 0 <= x44 <= 1
 0 <= x45 <= 1
 0 <= x46 <= 1
 0 <= x47 <= 1
 0 <= x48 <= 1
 0 <= x49 <= 1
 0 <= x50 <= 1
Binaries
 x1  x2  x3  x4  x5  x6  x7  x8  x9  x10  x11  x12  x13  x14  x15  x16  x17 
 x18  x19  x20  x21  x22  x23  x24  x25  x26  x27  x28  x29  x30  x31  x32 
 x33  x34  x35  x36  x37  x38  x39  x40  x41  x42  x43  x44  x45  x46  x47 
 x48  x49  x50 
End
